c Modular CNF with 2 modules
c Generated CNF instance
p cnf 20 320
1 3 5 0
1 3 -5 0
1 -3 5 0
-1 3 5 0
3 4 1 0
3 4 -1 0
3 -4 1 0
-3 4 1 0
4 9 1 0
4 9 -1 0
4 -9 1 0
-4 9 1 0
8 5 1 0
8 5 -1 0
8 -5 1 0
-8 5 1 0
1 7 4 0
1 7 -4 0
1 -7 4 0
-1 7 4 0
4 2 9 0
4 2 -9 0
4 -2 9 0
-4 2 9 0
1 5 7 0
1 5 -7 0
1 -5 7 0
-1 5 7 0
5 10 4 0
5 10 -4 0
5 -10 4 0
-5 10 4 0
1 6 9 0
1 6 -9 0
1 -6 9 0
-1 6 9 0
2 4 1 0
2 4 -1 0
2 -4 1 0
-2 4 1 0
1 8 2 0
1 8 -2 0
1 -8 2 0
-1 8 2 0
8 7 5 0
8 7 -5 0
8 -7 5 0
-8 7 5 0
7 5 1 0
7 5 -1 0
7 -5 1 0
-7 5 1 0
7 5 10 0
7 5 -10 0
7 -5 10 0
-7 5 10 0
3 4 1 0
3 4 -1 0
3 -4 1 0
-3 4 1 0
9 8 10 0
9 8 -10 0
9 -8 10 0
-9 8 10 0
10 3 8 0
10 3 -8 0
10 -3 8 0
-10 3 8 0
4 2 10 0
4 2 -10 0
4 -2 10 0
-4 2 10 0
2 6 9 0
2 6 -9 0
2 -6 9 0
-2 6 9 0
6 1 3 0
6 1 -3 0
6 -1 3 0
-6 1 3 0
9 3 5 0
9 3 -5 0
9 -3 5 0
-9 3 5 0
10 7 4 0
10 7 -4 0
10 -7 4 0
-10 7 4 0
9 5 2 0
9 5 -2 0
9 -5 2 0
-9 5 2 0
5 1 4 0
5 1 -4 0
5 -1 4 0
-5 1 4 0
3 6 4 0
3 6 -4 0
3 -6 4 0
-3 6 4 0
6 1 2 0
6 1 -2 0
6 -1 2 0
-6 1 2 0
8 10 7 0
8 10 -7 0
8 -10 7 0
-8 10 7 0
6 8 4 0
6 8 -4 0
6 -8 4 0
-6 8 4 0
10 2 5 0
10 2 -5 0
10 -2 5 0
-10 2 5 0
10 4 1 0
10 4 -1 0
10 -4 1 0
-10 4 1 0
9 8 5 0
9 8 -5 0
9 -8 5 0
-9 8 5 0
8 5 6 0
8 5 -6 0
8 -5 6 0
-8 5 6 0
9 8 3 0
9 8 -3 0
9 -8 3 0
-9 8 3 0
3 5 1 0
3 5 -1 0
3 -5 1 0
-3 5 1 0
4 5 2 0
4 5 -2 0
4 -5 2 0
-4 5 2 0
8 10 9 0
8 10 -9 0
8 -10 9 0
-8 10 9 0
5 1 7 0
5 1 -7 0
5 -1 7 0
-5 1 7 0
7 5 10 0
7 5 -10 0
7 -5 10 0
-7 5 10 0
3 10 9 0
3 10 -9 0
3 -10 9 0
-3 10 9 0
7 2 8 0
7 2 -8 0
7 -2 8 0
-7 2 8 0
13 12 19 0
13 12 -19 0
13 -12 19 0
-13 12 19 0
11 19 18 0
11 19 -18 0
11 -19 18 0
-11 19 18 0
19 14 18 0
19 14 -18 0
19 -14 18 0
-19 14 18 0
15 17 18 0
15 17 -18 0
15 -17 18 0
-15 17 18 0
13 15 14 0
13 15 -14 0
13 -15 14 0
-13 15 14 0
16 11 13 0
16 11 -13 0
16 -11 13 0
-16 11 13 0
12 15 11 0
12 15 -11 0
12 -15 11 0
-12 15 11 0
14 12 20 0
14 12 -20 0
14 -12 20 0
-14 12 20 0
16 14 15 0
16 14 -15 0
16 -14 15 0
-16 14 15 0
18 11 19 0
18 11 -19 0
18 -11 19 0
-18 11 19 0
14 11 16 0
14 11 -16 0
14 -11 16 0
-14 11 16 0
20 13 18 0
20 13 -18 0
20 -13 18 0
-20 13 18 0
11 15 17 0
11 15 -17 0
11 -15 17 0
-11 15 17 0
19 16 12 0
19 16 -12 0
19 -16 12 0
-19 16 12 0
14 12 15 0
14 12 -15 0
14 -12 15 0
-14 12 15 0
12 13 18 0
12 13 -18 0
12 -13 18 0
-12 13 18 0
16 11 15 0
16 11 -15 0
16 -11 15 0
-16 11 15 0
18 13 15 0
18 13 -15 0
18 -13 15 0
-18 13 15 0
16 11 15 0
16 11 -15 0
16 -11 15 0
-16 11 15 0
15 17 11 0
15 17 -11 0
15 -17 11 0
-15 17 11 0
13 12 17 0
13 12 -17 0
13 -12 17 0
-13 12 17 0
11 12 14 0
11 12 -14 0
11 -12 14 0
-11 12 14 0
18 19 12 0
18 19 -12 0
18 -19 12 0
-18 19 12 0
16 11 20 0
16 11 -20 0
16 -11 20 0
-16 11 20 0
12 19 14 0
12 19 -14 0
12 -19 14 0
-12 19 14 0
16 11 18 0
16 11 -18 0
16 -11 18 0
-16 11 18 0
17 16 14 0
17 16 -14 0
17 -16 14 0
-17 16 14 0
17 16 11 0
17 16 -11 0
17 -16 11 0
-17 16 11 0
20 17 15 0
20 17 -15 0
20 -17 15 0
-20 17 15 0
13 15 11 0
13 15 -11 0
13 -15 11 0
-13 15 11 0
14 17 18 0
14 17 -18 0
14 -17 18 0
-14 17 18 0
14 20 18 0
14 20 -18 0
14 -20 18 0
-14 20 18 0
18 15 13 0
18 15 -13 0
18 -15 13 0
-18 15 13 0
11 15 17 0
11 15 -17 0
11 -15 17 0
-11 15 17 0
18 20 11 0
18 20 -11 0
18 -20 11 0
-18 20 11 0
15 18 13 0
15 18 -13 0
15 -18 13 0
-15 18 13 0
12 17 11 0
12 17 -11 0
12 -17 11 0
-12 17 11 0
12 16 13 0
12 16 -13 0
12 -16 13 0
-12 16 13 0
19 16 17 0
19 16 -17 0
19 -16 17 0
-19 16 17 0
15 17 11 0
15 17 -11 0
15 -17 11 0
-15 17 11 0
